nK = 2223;
nT = 8;
nI = 21;
L = 35;
TT = 453;
np = 1;
nc = 3;
b = [43, 42, 47, 64, 41, 62, 63, 55, 38, 39, 29, 38, 25, 56, 46, 40, 44, 63, 67, 63, 59];
d = [102, 96, 141, 130, 148, 93, 114, 139, 126, 93, 83, 139, 149, 95, 79, 95, 121, 143, 114, 131, 104];
m = [2.3, 2.1, 2, 1.8, 1.1, 1.4, 2.5, 1.3, 1.7, 1, 1.2, 1.6, 1.5, 2.2, 2, 1.3, 2.1, 2, 1.5, 2.5, 2.4];
pt = [0.24, 0.2, 0.27, 0.27, 0.25, 0.24, 0.34, 0.29];
st = [9.6, 8.4, 12.42, 15.66, 11.75, 13.2, 19.04, 15.95];
arc = {<1, 0, 1, 1, 0, 0, 0, [1, 1, 1, 1, 1, 1, 1, 1]>, <2, 1, 2, 1, 0, 0, 0, [1, 1, 1, 1, 1, 1, 1, 1]>, <3, 2, 3, 1, 0, 0, 0, [1, 1, 1, 1, 1, 1, 1, 1]>, <4, 3, 4, 1, 0, 0, 0, [1, 1, 1, 1, 1, 1, 1, 1]>, <5, 4, 5, 1, 0, 0, 0, [1, 1, 1, 1, 1, 1, 1, 1]>, <6, 5, 6, 1, 0, 0, 0, [1, 1, 1, 1, 1, 1, 1, 1]>, <7, 6, 7, 1, 0, 0, 0, [1, 1, 1, 1, 1, 1, 1, 1]>, <8, 7, 8, 1, 0, 0, 0, [1, 1, 1, 1, 1, 1, 1, 1]>, <9, 8, 9, 1, 0, 0, 0, [1, 1, 1, 1, 1, 1, 1, 1]>, <10, 9, 10, 1, 0, 0, 0, [1, 1, 1, 1, 1, 1, 1, 1]>, <11, 10, 11, 1, 0, 0, 0, [1, 1, 1, 1, 1, 1, 1, 1]>, <12, 11, 12, 1, 0, 0, 0, [1, 1, 1, 1, 1, 1, 1, 1]>, <13, 12, 13, 1, 0, 0, 0, [1, 1, 1, 1, 1, 1, 1, 1]>, <14, 13, 14, 1, 0, 0, 0, [1, 1, 1, 1, 1, 1, 1, 1]>, <15, 14, 15, 1, 0, 0, 0, [1, 1, 1, 1, 1, 1, 1, 1]>, <16, 15, 16, 1, 0, 0, 0, [1, 1, 1, 1, 1, 1, 1, 1]>, <17, 16, 17, 1, 0, 0, 0, [1, 1, 1, 1, 1, 1, 1, 1]>, <18, 17, 18, 1, 0, 0, 0, [1, 1, 1, 1, 1, 1, 1, 1]>, <19, 18, 19, 1, 0, 0, 0, [1, 1, 1, 1, 1, 1, 1, 1]>, <20, 19, 20, 1, 0, 0, 0, [1, 1, 1, 1, 1, 1, 1, 1]>, <21, 20, 21, 1, 0, 0, 0, [1, 1, 1, 1, 1, 1, 1, 1]>, <22, 21, 22, 1, 0, 0, 0, [1, 1, 1, 1, 1, 1, 1, 1]>, <23, 22, 23, 1, 0, 0, 0, [1, 1, 1, 1, 1, 1, 1, 1]>, <24, 23, 24, 1, 0, 0, 0, [1, 1, 1, 1, 1, 1, 1, 1]>, <25, 24, 25, 1, 0, 0, 0, [1, 1, 1, 1, 1, 1, 1, 1]>, <26, 25, 26, 1, 0, 0, 0, [1, 1, 1, 1, 1, 1, 1, 1]>, <27, 26, 27, 1, 0, 0, 0, [1, 1, 1, 1, 1, 1, 1, 1]>, <28, 27, 28, 1, 0, 0, 0, [1, 1, 1, 1, 1, 1, 1, 1]>, <29, 28, 29, 1, 0, 0, 0, [1, 1, 1, 1, 1, 1, 1, 1]>, <30, 29, 30, 1, 0, 0, 0, [1, 1, 1, 1, 1, 1, 1, 1]>, <31, 30, 31, 1, 0, 0, 0, [1, 1, 1, 1, 1, 1, 1, 1]>, <32, 31, 32, 1, 0, 0, 0, [1, 1, 1, 1, 1, 1, 1, 1]>, <33, 32, 33, 1, 0, 0, 0, [1, 1, 1, 1, 1, 1, 1, 1]>, <34, 33, 34, 1, 0, 0, 0, [1, 1, 1, 1, 1, 1, 1, 1]>, <35, 34, 35, 1, 0, 0, 0, [1, 1, 1, 1, 1, 1, 1, 1]>, <36, 4, 17, 13, 1, 1, 0, [1, 1, 1, 0, 0, 0, 0, 1]>, <37, 5, 18, 13, 1, 1, 0, [1, 1, 1, 0, 0, 0, 0, 1]>, <38, 6, 19, 13, 1, 1, 0, [1, 1, 1, 0, 0, 0, 0, 1]>, <39, 13, 26, 13, 1, 1, 0, [1, 1, 1, 0, 0, 0, 0, 1]>, <40, 14, 27, 13, 1, 1, 0, [1, 1, 1, 0, 0, 0, 0, 1]>, <41, 15, 28, 13, 1, 1, 0, [1, 1, 1, 0, 0, 0, 0, 1]>, <42, 18, 31, 13, 1, 1, 0, [1, 1, 1, 0, 0, 0, 0, 1]>, <43, 19, 32, 13, 1, 1, 0, [1, 1, 1, 0, 0, 0, 0, 1]>, <44, 20, 33, 13, 1, 1, 0, [1, 1, 1, 0, 0, 0, 0, 1]>, <45, 21, 34, 13, 1, 1, 0, [1, 1, 1, 0, 0, 0, 0, 1]>, <46, 22, 35, 13, 1, 1, 0, [1, 1, 1, 0, 0, 0, 0, 1]>, <47, 0, 18, 18, 2, 0, 0, [1, 1, 1, 1, 0, 0, 0, 0]>, <48, 1, 19, 18, 2, 0, 0, [1, 1, 1, 1, 0, 0, 0, 0]>, <49, 2, 20, 18, 2, 0, 0, [1, 1, 1, 1, 0, 0, 0, 0]>, <50, 3, 21, 18, 2, 0, 0, [1, 1, 1, 1, 0, 0, 0, 0]>, <51, 4, 22, 18, 2, 0, 0, [1, 1, 1, 1, 0, 0, 0, 0]>, <52, 5, 23, 18, 2, 0, 0, [1, 1, 1, 1, 0, 0, 0, 0]>, <53, 6, 24, 18, 2, 0, 0, [1, 1, 1, 1, 0, 0, 0, 0]>, <54, 8, 26, 18, 2, 0, 0, [1, 1, 1, 1, 0, 0, 0, 0]>, <55, 9, 27, 18, 2, 0, 0, [1, 1, 1, 1, 0, 0, 0, 0]>, <56, 10, 28, 18, 2, 0, 0, [1, 1, 1, 1, 0, 0, 0, 0]>, <57, 11, 29, 18, 2, 0, 0, [1, 1, 1, 1, 0, 0, 0, 0]>, <58, 12, 30, 18, 2, 0, 0, [1, 1, 1, 1, 0, 0, 0, 0]>, <59, 13, 31, 18, 2, 0, 0, [1, 1, 1, 1, 0, 0, 0, 0]>, <60, 14, 32, 18, 2, 0, 0, [1, 1, 1, 1, 0, 0, 0, 0]>, <61, 15, 33, 18, 2, 0, 0, [1, 1, 1, 1, 0, 0, 0, 0]>, <62, 16, 34, 18, 2, 0, 0, [1, 1, 1, 1, 0, 0, 0, 0]>, <63, 17, 35, 18, 2, 0, 0, [1, 1, 1, 1, 0, 0, 0, 0]>, <64, 0, 18, 18, 3, 0, 0, [1, 0, 0, 0, 0, 1, 1, 1]>, <65, 1, 19, 18, 3, 0, 0, [1, 0, 0, 0, 0, 1, 1, 1]>, <66, 2, 20, 18, 3, 0, 0, [1, 0, 0, 0, 0, 1, 1, 1]>, <67, 3, 21, 18, 3, 0, 0, [1, 0, 0, 0, 0, 1, 1, 1]>, <68, 4, 22, 18, 3, 0, 0, [1, 0, 0, 0, 0, 1, 1, 1]>, <69, 5, 23, 18, 3, 0, 0, [1, 0, 0, 0, 0, 1, 1, 1]>, <70, 6, 24, 18, 3, 0, 0, [1, 0, 0, 0, 0, 1, 1, 1]>, <71, 8, 26, 18, 3, 0, 0, [1, 0, 0, 0, 0, 1, 1, 1]>, <72, 9, 27, 18, 3, 0, 0, [1, 0, 0, 0, 0, 1, 1, 1]>, <73, 10, 28, 18, 3, 0, 0, [1, 0, 0, 0, 0, 1, 1, 1]>, <74, 11, 29, 18, 3, 0, 0, [1, 0, 0, 0, 0, 1, 1, 1]>, <75, 12, 30, 18, 3, 0, 0, [1, 0, 0, 0, 0, 1, 1, 1]>, <76, 13, 31, 18, 3, 0, 0, [1, 0, 0, 0, 0, 1, 1, 1]>, <77, 14, 32, 18, 3, 0, 0, [1, 0, 0, 0, 0, 1, 1, 1]>, <78, 15, 33, 18, 3, 0, 0, [1, 0, 0, 0, 0, 1, 1, 1]>, <79, 16, 34, 18, 3, 0, 0, [1, 0, 0, 0, 0, 1, 1, 1]>, <80, 17, 35, 18, 3, 0, 0, [1, 0, 0, 0, 0, 1, 1, 1]>, <81, 0, 18, 18, 4, 1, 0, [1, 1, 0, 0, 0, 0, 1, 1]>, <82, 1, 19, 18, 4, 1, 0, [1, 1, 0, 0, 0, 0, 1, 1]>, <83, 2, 20, 18, 4, 1, 0, [1, 1, 0, 0, 0, 0, 1, 1]>, <84, 3, 21, 18, 4, 1, 0, [1, 1, 0, 0, 0, 0, 1, 1]>, <85, 4, 22, 18, 4, 1, 0, [1, 1, 0, 0, 0, 0, 1, 1]>, <86, 5, 23, 18, 4, 1, 0, [1, 1, 0, 0, 0, 0, 1, 1]>, <87, 6, 24, 18, 4, 1, 0, [1, 1, 0, 0, 0, 0, 1, 1]>, <88, 8, 26, 18, 4, 1, 0, [1, 1, 0, 0, 0, 0, 1, 1]>, <89, 9, 27, 18, 4, 1, 0, [1, 1, 0, 0, 0, 0, 1, 1]>, <90, 10, 28, 18, 4, 1, 0, [1, 1, 0, 0, 0, 0, 1, 1]>, <91, 11, 29, 18, 4, 1, 0, [1, 1, 0, 0, 0, 0, 1, 1]>, <92, 12, 30, 18, 4, 1, 0, [1, 1, 0, 0, 0, 0, 1, 1]>, <93, 13, 31, 18, 4, 1, 0, [1, 1, 0, 0, 0, 0, 1, 1]>, <94, 14, 32, 18, 4, 1, 0, [1, 1, 0, 0, 0, 0, 1, 1]>, <95, 15, 33, 18, 4, 1, 0, [1, 1, 0, 0, 0, 0, 1, 1]>, <96, 16, 34, 18, 4, 1, 0, [1, 1, 0, 0, 0, 0, 1, 1]>, <97, 17, 35, 18, 4, 1, 0, [1, 1, 0, 0, 0, 0, 1, 1]>, <98, 1, 17, 16, 5, 0, 0, [1, 0, 0, 0, 0, 1, 1, 1]>, <99, 2, 18, 16, 5, 0, 0, [1, 0, 0, 0, 0, 1, 1, 1]>, <100, 3, 19, 16, 5, 0, 0, [1, 0, 0, 0, 0, 1, 1, 1]>, <101, 4, 20, 16, 5, 0, 0, [1, 0, 0, 0, 0, 1, 1, 1]>, <102, 5, 21, 16, 5, 0, 0, [1, 0, 0, 0, 0, 1, 1, 1]>, <103, 6, 22, 16, 5, 0, 0, [1, 0, 0, 0, 0, 1, 1, 1]>, <104, 10, 26, 16, 5, 0, 0, [1, 0, 0, 0, 0, 1, 1, 1]>, <105, 11, 27, 16, 5, 0, 0, [1, 0, 0, 0, 0, 1, 1, 1]>, <106, 12, 28, 16, 5, 0, 0, [1, 0, 0, 0, 0, 1, 1, 1]>, <107, 13, 29, 16, 5, 0, 0, [1, 0, 0, 0, 0, 1, 1, 1]>, <108, 14, 30, 16, 5, 0, 0, [1, 0, 0, 0, 0, 1, 1, 1]>, <109, 15, 31, 16, 5, 0, 0, [1, 0, 0, 0, 0, 1, 1, 1]>, <110, 16, 32, 16, 5, 0, 0, [1, 0, 0, 0, 0, 1, 1, 1]>, <111, 17, 33, 16, 5, 0, 0, [1, 0, 0, 0, 0, 1, 1, 1]>, <112, 18, 34, 16, 5, 0, 0, [1, 0, 0, 0, 0, 1, 1, 1]>, <113, 19, 35, 16, 5, 0, 0, [1, 0, 0, 0, 0, 1, 1, 1]>, <114, 0, 18, 18, 6, 0, 1, [0, 0, 0, 1, 1, 1, 1, 0]>, <115, 1, 19, 18, 6, 0, 1, [0, 0, 0, 1, 1, 1, 1, 0]>, <116, 2, 20, 18, 6, 0, 1, [0, 0, 0, 1, 1, 1, 1, 0]>, <117, 3, 21, 18, 6, 0, 1, [0, 0, 0, 1, 1, 1, 1, 0]>, <118, 4, 22, 18, 6, 0, 1, [0, 0, 0, 1, 1, 1, 1, 0]>, <119, 5, 23, 18, 6, 0, 1, [0, 0, 0, 1, 1, 1, 1, 0]>, <120, 6, 24, 18, 6, 0, 1, [0, 0, 0, 1, 1, 1, 1, 0]>, <121, 8, 26, 18, 6, 0, 1, [0, 0, 0, 1, 1, 1, 1, 0]>, <122, 9, 27, 18, 6, 0, 1, [0, 0, 0, 1, 1, 1, 1, 0]>, <123, 10, 28, 18, 6, 0, 1, [0, 0, 0, 1, 1, 1, 1, 0]>, <124, 11, 29, 18, 6, 0, 1, [0, 0, 0, 1, 1, 1, 1, 0]>, <125, 12, 30, 18, 6, 0, 1, [0, 0, 0, 1, 1, 1, 1, 0]>, <126, 13, 31, 18, 6, 0, 1, [0, 0, 0, 1, 1, 1, 1, 0]>, <127, 14, 32, 18, 6, 0, 1, [0, 0, 0, 1, 1, 1, 1, 0]>, <128, 15, 33, 18, 6, 0, 1, [0, 0, 0, 1, 1, 1, 1, 0]>, <129, 16, 34, 18, 6, 0, 1, [0, 0, 0, 1, 1, 1, 1, 0]>, <130, 17, 35, 18, 6, 0, 1, [0, 0, 0, 1, 1, 1, 1, 0]>, <131, 3, 17, 14, 7, 0, 0, [0, 0, 0, 1, 1, 1, 1, 0]>, <132, 4, 18, 14, 7, 0, 0, [0, 0, 0, 1, 1, 1, 1, 0]>, <133, 5, 19, 14, 7, 0, 0, [0, 0, 0, 1, 1, 1, 1, 0]>, <134, 6, 20, 14, 7, 0, 0, [0, 0, 0, 1, 1, 1, 1, 0]>, <135, 12, 26, 14, 7, 0, 0, [0, 0, 0, 1, 1, 1, 1, 0]>, <136, 13, 27, 14, 7, 0, 0, [0, 0, 0, 1, 1, 1, 1, 0]>, <137, 14, 28, 14, 7, 0, 0, [0, 0, 0, 1, 1, 1, 1, 0]>, <138, 15, 29, 14, 7, 0, 0, [0, 0, 0, 1, 1, 1, 1, 0]>, <139, 17, 31, 14, 7, 0, 0, [0, 0, 0, 1, 1, 1, 1, 0]>, <140, 18, 32, 14, 7, 0, 0, [0, 0, 0, 1, 1, 1, 1, 0]>, <141, 19, 33, 14, 7, 0, 0, [0, 0, 0, 1, 1, 1, 1, 0]>, <142, 20, 34, 14, 7, 0, 0, [0, 0, 0, 1, 1, 1, 1, 0]>, <143, 21, 35, 14, 7, 0, 0, [0, 0, 0, 1, 1, 1, 1, 0]>, <144, 2, 17, 15, 8, 0, 1, [1, 1, 1, 1, 0, 0, 0, 0]>, <145, 3, 18, 15, 8, 0, 1, [1, 1, 1, 1, 0, 0, 0, 0]>, <146, 4, 19, 15, 8, 0, 1, [1, 1, 1, 1, 0, 0, 0, 0]>, <147, 5, 20, 15, 8, 0, 1, [1, 1, 1, 1, 0, 0, 0, 0]>, <148, 6, 21, 15, 8, 0, 1, [1, 1, 1, 1, 0, 0, 0, 0]>, <149, 11, 26, 15, 8, 0, 1, [1, 1, 1, 1, 0, 0, 0, 0]>, <150, 12, 27, 15, 8, 0, 1, [1, 1, 1, 1, 0, 0, 0, 0]>, <151, 13, 28, 15, 8, 0, 1, [1, 1, 1, 1, 0, 0, 0, 0]>, <152, 14, 29, 15, 8, 0, 1, [1, 1, 1, 1, 0, 0, 0, 0]>, <153, 15, 30, 15, 8, 0, 1, [1, 1, 1, 1, 0, 0, 0, 0]>, <154, 16, 31, 15, 8, 0, 1, [1, 1, 1, 1, 0, 0, 0, 0]>, <155, 17, 32, 15, 8, 0, 1, [1, 1, 1, 1, 0, 0, 0, 0]>, <156, 18, 33, 15, 8, 0, 1, [1, 1, 1, 1, 0, 0, 0, 0]>, <157, 19, 34, 15, 8, 0, 1, [1, 1, 1, 1, 0, 0, 0, 0]>, <158, 20, 35, 15, 8, 0, 1, [1, 1, 1, 1, 0, 0, 0, 0]>, <159, 2, 17, 15, 9, 0, 0, [1, 1, 1, 0, 0, 0, 0, 1]>, <160, 3, 18, 15, 9, 0, 0, [1, 1, 1, 0, 0, 0, 0, 1]>, <161, 4, 19, 15, 9, 0, 0, [1, 1, 1, 0, 0, 0, 0, 1]>, <162, 5, 20, 15, 9, 0, 0, [1, 1, 1, 0, 0, 0, 0, 1]>, <163, 6, 21, 15, 9, 0, 0, [1, 1, 1, 0, 0, 0, 0, 1]>, <164, 11, 26, 15, 9, 0, 0, [1, 1, 1, 0, 0, 0, 0, 1]>, <165, 12, 27, 15, 9, 0, 0, [1, 1, 1, 0, 0, 0, 0, 1]>, <166, 13, 28, 15, 9, 0, 0, [1, 1, 1, 0, 0, 0, 0, 1]>, <167, 14, 29, 15, 9, 0, 0, [1, 1, 1, 0, 0, 0, 0, 1]>, <168, 15, 30, 15, 9, 0, 0, [1, 1, 1, 0, 0, 0, 0, 1]>, <169, 16, 31, 15, 9, 0, 0, [1, 1, 1, 0, 0, 0, 0, 1]>, <170, 17, 32, 15, 9, 0, 0, [1, 1, 1, 0, 0, 0, 0, 1]>, <171, 18, 33, 15, 9, 0, 0, [1, 1, 1, 0, 0, 0, 0, 1]>, <172, 19, 34, 15, 9, 0, 0, [1, 1, 1, 0, 0, 0, 0, 1]>, <173, 20, 35, 15, 9, 0, 0, [1, 1, 1, 0, 0, 0, 0, 1]>, <174, 3, 17, 14, 10, 0, 0, [1, 1, 1, 1, 0, 0, 0, 0]>, <175, 4, 18, 14, 10, 0, 0, [1, 1, 1, 1, 0, 0, 0, 0]>, <176, 5, 19, 14, 10, 0, 0, [1, 1, 1, 1, 0, 0, 0, 0]>, <177, 6, 20, 14, 10, 0, 0, [1, 1, 1, 1, 0, 0, 0, 0]>, <178, 12, 26, 14, 10, 0, 0, [1, 1, 1, 1, 0, 0, 0, 0]>, <179, 13, 27, 14, 10, 0, 0, [1, 1, 1, 1, 0, 0, 0, 0]>, <180, 14, 28, 14, 10, 0, 0, [1, 1, 1, 1, 0, 0, 0, 0]>, <181, 15, 29, 14, 10, 0, 0, [1, 1, 1, 1, 0, 0, 0, 0]>, <182, 17, 31, 14, 10, 0, 0, [1, 1, 1, 1, 0, 0, 0, 0]>, <183, 18, 32, 14, 10, 0, 0, [1, 1, 1, 1, 0, 0, 0, 0]>, <184, 19, 33, 14, 10, 0, 0, [1, 1, 1, 1, 0, 0, 0, 0]>, <185, 20, 34, 14, 10, 0, 0, [1, 1, 1, 1, 0, 0, 0, 0]>, <186, 21, 35, 14, 10, 0, 0, [1, 1, 1, 1, 0, 0, 0, 0]>, <187, 3, 17, 14, 11, 0, 0, [1, 1, 1, 0, 0, 0, 0, 1]>, <188, 4, 18, 14, 11, 0, 0, [1, 1, 1, 0, 0, 0, 0, 1]>, <189, 5, 19, 14, 11, 0, 0, [1, 1, 1, 0, 0, 0, 0, 1]>, <190, 6, 20, 14, 11, 0, 0, [1, 1, 1, 0, 0, 0, 0, 1]>, <191, 12, 26, 14, 11, 0, 0, [1, 1, 1, 0, 0, 0, 0, 1]>, <192, 13, 27, 14, 11, 0, 0, [1, 1, 1, 0, 0, 0, 0, 1]>, <193, 14, 28, 14, 11, 0, 0, [1, 1, 1, 0, 0, 0, 0, 1]>, <194, 15, 29, 14, 11, 0, 0, [1, 1, 1, 0, 0, 0, 0, 1]>, <195, 17, 31, 14, 11, 0, 0, [1, 1, 1, 0, 0, 0, 0, 1]>, <196, 18, 32, 14, 11, 0, 0, [1, 1, 1, 0, 0, 0, 0, 1]>, <197, 19, 33, 14, 11, 0, 0, [1, 1, 1, 0, 0, 0, 0, 1]>, <198, 20, 34, 14, 11, 0, 0, [1, 1, 1, 0, 0, 0, 0, 1]>, <199, 21, 35, 14, 11, 0, 0, [1, 1, 1, 0, 0, 0, 0, 1]>, <200, 0, 18, 18, 12, 0, 0, [1, 0, 0, 0, 0, 1, 1, 1]>, <201, 1, 19, 18, 12, 0, 0, [1, 0, 0, 0, 0, 1, 1, 1]>, <202, 2, 20, 18, 12, 0, 0, [1, 0, 0, 0, 0, 1, 1, 1]>, <203, 3, 21, 18, 12, 0, 0, [1, 0, 0, 0, 0, 1, 1, 1]>, <204, 4, 22, 18, 12, 0, 0, [1, 0, 0, 0, 0, 1, 1, 1]>, <205, 5, 23, 18, 12, 0, 0, [1, 0, 0, 0, 0, 1, 1, 1]>, <206, 6, 24, 18, 12, 0, 0, [1, 0, 0, 0, 0, 1, 1, 1]>, <207, 8, 26, 18, 12, 0, 0, [1, 0, 0, 0, 0, 1, 1, 1]>, <208, 9, 27, 18, 12, 0, 0, [1, 0, 0, 0, 0, 1, 1, 1]>, <209, 10, 28, 18, 12, 0, 0, [1, 0, 0, 0, 0, 1, 1, 1]>, <210, 11, 29, 18, 12, 0, 0, [1, 0, 0, 0, 0, 1, 1, 1]>, <211, 12, 30, 18, 12, 0, 0, [1, 0, 0, 0, 0, 1, 1, 1]>, <212, 13, 31, 18, 12, 0, 0, [1, 0, 0, 0, 0, 1, 1, 1]>, <213, 14, 32, 18, 12, 0, 0, [1, 0, 0, 0, 0, 1, 1, 1]>, <214, 15, 33, 18, 12, 0, 0, [1, 0, 0, 0, 0, 1, 1, 1]>, <215, 16, 34, 18, 12, 0, 0, [1, 0, 0, 0, 0, 1, 1, 1]>, <216, 17, 35, 18, 12, 0, 0, [1, 0, 0, 0, 0, 1, 1, 1]>, <217, 0, 18, 18, 13, 0, 0, [0, 0, 1, 1, 1, 1, 0, 0]>, <218, 1, 19, 18, 13, 0, 0, [0, 0, 1, 1, 1, 1, 0, 0]>, <219, 2, 20, 18, 13, 0, 0, [0, 0, 1, 1, 1, 1, 0, 0]>, <220, 3, 21, 18, 13, 0, 0, [0, 0, 1, 1, 1, 1, 0, 0]>, <221, 4, 22, 18, 13, 0, 0, [0, 0, 1, 1, 1, 1, 0, 0]>, <222, 5, 23, 18, 13, 0, 0, [0, 0, 1, 1, 1, 1, 0, 0]>, <223, 6, 24, 18, 13, 0, 0, [0, 0, 1, 1, 1, 1, 0, 0]>, <224, 8, 26, 18, 13, 0, 0, [0, 0, 1, 1, 1, 1, 0, 0]>, <225, 9, 27, 18, 13, 0, 0, [0, 0, 1, 1, 1, 1, 0, 0]>, <226, 10, 28, 18, 13, 0, 0, [0, 0, 1, 1, 1, 1, 0, 0]>, <227, 11, 29, 18, 13, 0, 0, [0, 0, 1, 1, 1, 1, 0, 0]>, <228, 12, 30, 18, 13, 0, 0, [0, 0, 1, 1, 1, 1, 0, 0]>, <229, 13, 31, 18, 13, 0, 0, [0, 0, 1, 1, 1, 1, 0, 0]>, <230, 14, 32, 18, 13, 0, 0, [0, 0, 1, 1, 1, 1, 0, 0]>, <231, 15, 33, 18, 13, 0, 0, [0, 0, 1, 1, 1, 1, 0, 0]>, <232, 16, 34, 18, 13, 0, 0, [0, 0, 1, 1, 1, 1, 0, 0]>, <233, 17, 35, 18, 13, 0, 0, [0, 0, 1, 1, 1, 1, 0, 0]>, <234, 0, 17, 17, 14, 0, 0, [0, 0, 0, 0, 1, 1, 1, 1]>, <235, 1, 18, 17, 14, 0, 0, [0, 0, 0, 0, 1, 1, 1, 1]>, <236, 2, 19, 17, 14, 0, 0, [0, 0, 0, 0, 1, 1, 1, 1]>, <237, 3, 20, 17, 14, 0, 0, [0, 0, 0, 0, 1, 1, 1, 1]>, <238, 4, 21, 17, 14, 0, 0, [0, 0, 0, 0, 1, 1, 1, 1]>, <239, 5, 22, 17, 14, 0, 0, [0, 0, 0, 0, 1, 1, 1, 1]>, <240, 6, 23, 17, 14, 0, 0, [0, 0, 0, 0, 1, 1, 1, 1]>, <241, 9, 26, 17, 14, 0, 0, [0, 0, 0, 0, 1, 1, 1, 1]>, <242, 10, 27, 17, 14, 0, 0, [0, 0, 0, 0, 1, 1, 1, 1]>, <243, 11, 28, 17, 14, 0, 0, [0, 0, 0, 0, 1, 1, 1, 1]>, <244, 12, 29, 17, 14, 0, 0, [0, 0, 0, 0, 1, 1, 1, 1]>, <245, 13, 30, 17, 14, 0, 0, [0, 0, 0, 0, 1, 1, 1, 1]>, <246, 14, 31, 17, 14, 0, 0, [0, 0, 0, 0, 1, 1, 1, 1]>, <247, 15, 32, 17, 14, 0, 0, [0, 0, 0, 0, 1, 1, 1, 1]>, <248, 16, 33, 17, 14, 0, 0, [0, 0, 0, 0, 1, 1, 1, 1]>, <249, 17, 34, 17, 14, 0, 0, [0, 0, 0, 0, 1, 1, 1, 1]>, <250, 18, 35, 17, 14, 0, 0, [0, 0, 0, 0, 1, 1, 1, 1]>, <251, 3, 17, 14, 15, 0, 1, [0, 1, 1, 1, 1, 0, 0, 0]>, <252, 4, 18, 14, 15, 0, 1, [0, 1, 1, 1, 1, 0, 0, 0]>, <253, 5, 19, 14, 15, 0, 1, [0, 1, 1, 1, 1, 0, 0, 0]>, <254, 6, 20, 14, 15, 0, 1, [0, 1, 1, 1, 1, 0, 0, 0]>, <255, 12, 26, 14, 15, 0, 1, [0, 1, 1, 1, 1, 0, 0, 0]>, <256, 13, 27, 14, 15, 0, 1, [0, 1, 1, 1, 1, 0, 0, 0]>, <257, 14, 28, 14, 15, 0, 1, [0, 1, 1, 1, 1, 0, 0, 0]>, <258, 15, 29, 14, 15, 0, 1, [0, 1, 1, 1, 1, 0, 0, 0]>, <259, 17, 31, 14, 15, 0, 1, [0, 1, 1, 1, 1, 0, 0, 0]>, <260, 18, 32, 14, 15, 0, 1, [0, 1, 1, 1, 1, 0, 0, 0]>, <261, 19, 33, 14, 15, 0, 1, [0, 1, 1, 1, 1, 0, 0, 0]>, <262, 20, 34, 14, 15, 0, 1, [0, 1, 1, 1, 1, 0, 0, 0]>, <263, 21, 35, 14, 15, 0, 1, [0, 1, 1, 1, 1, 0, 0, 0]>, <264, 0, 18, 18, 16, 0, 0, [1, 0, 0, 0, 0, 1, 1, 1]>, <265, 1, 19, 18, 16, 0, 0, [1, 0, 0, 0, 0, 1, 1, 1]>, <266, 2, 20, 18, 16, 0, 0, [1, 0, 0, 0, 0, 1, 1, 1]>, <267, 3, 21, 18, 16, 0, 0, [1, 0, 0, 0, 0, 1, 1, 1]>, <268, 4, 22, 18, 16, 0, 0, [1, 0, 0, 0, 0, 1, 1, 1]>, <269, 5, 23, 18, 16, 0, 0, [1, 0, 0, 0, 0, 1, 1, 1]>, <270, 6, 24, 18, 16, 0, 0, [1, 0, 0, 0, 0, 1, 1, 1]>, <271, 8, 26, 18, 16, 0, 0, [1, 0, 0, 0, 0, 1, 1, 1]>, <272, 9, 27, 18, 16, 0, 0, [1, 0, 0, 0, 0, 1, 1, 1]>, <273, 10, 28, 18, 16, 0, 0, [1, 0, 0, 0, 0, 1, 1, 1]>, <274, 11, 29, 18, 16, 0, 0, [1, 0, 0, 0, 0, 1, 1, 1]>, <275, 12, 30, 18, 16, 0, 0, [1, 0, 0, 0, 0, 1, 1, 1]>, <276, 13, 31, 18, 16, 0, 0, [1, 0, 0, 0, 0, 1, 1, 1]>, <277, 14, 32, 18, 16, 0, 0, [1, 0, 0, 0, 0, 1, 1, 1]>, <278, 15, 33, 18, 16, 0, 0, [1, 0, 0, 0, 0, 1, 1, 1]>, <279, 16, 34, 18, 16, 0, 0, [1, 0, 0, 0, 0, 1, 1, 1]>, <280, 17, 35, 18, 16, 0, 0, [1, 0, 0, 0, 0, 1, 1, 1]>, <281, 0, 18, 18, 17, 0, 0, [1, 1, 1, 1, 0, 0, 0, 0]>, <282, 1, 19, 18, 17, 0, 0, [1, 1, 1, 1, 0, 0, 0, 0]>, <283, 2, 20, 18, 17, 0, 0, [1, 1, 1, 1, 0, 0, 0, 0]>, <284, 3, 21, 18, 17, 0, 0, [1, 1, 1, 1, 0, 0, 0, 0]>, <285, 4, 22, 18, 17, 0, 0, [1, 1, 1, 1, 0, 0, 0, 0]>, <286, 5, 23, 18, 17, 0, 0, [1, 1, 1, 1, 0, 0, 0, 0]>, <287, 6, 24, 18, 17, 0, 0, [1, 1, 1, 1, 0, 0, 0, 0]>, <288, 8, 26, 18, 17, 0, 0, [1, 1, 1, 1, 0, 0, 0, 0]>, <289, 9, 27, 18, 17, 0, 0, [1, 1, 1, 1, 0, 0, 0, 0]>, <290, 10, 28, 18, 17, 0, 0, [1, 1, 1, 1, 0, 0, 0, 0]>, <291, 11, 29, 18, 17, 0, 0, [1, 1, 1, 1, 0, 0, 0, 0]>, <292, 12, 30, 18, 17, 0, 0, [1, 1, 1, 1, 0, 0, 0, 0]>, <293, 13, 31, 18, 17, 0, 0, [1, 1, 1, 1, 0, 0, 0, 0]>, <294, 14, 32, 18, 17, 0, 0, [1, 1, 1, 1, 0, 0, 0, 0]>, <295, 15, 33, 18, 17, 0, 0, [1, 1, 1, 1, 0, 0, 0, 0]>, <296, 16, 34, 18, 17, 0, 0, [1, 1, 1, 1, 0, 0, 0, 0]>, <297, 17, 35, 18, 17, 0, 0, [1, 1, 1, 1, 0, 0, 0, 0]>, <298, 0, 18, 18, 18, 0, 1, [0, 0, 1, 1, 1, 1, 0, 0]>, <299, 1, 19, 18, 18, 0, 1, [0, 0, 1, 1, 1, 1, 0, 0]>, <300, 2, 20, 18, 18, 0, 1, [0, 0, 1, 1, 1, 1, 0, 0]>, <301, 3, 21, 18, 18, 0, 1, [0, 0, 1, 1, 1, 1, 0, 0]>, <302, 4, 22, 18, 18, 0, 1, [0, 0, 1, 1, 1, 1, 0, 0]>, <303, 5, 23, 18, 18, 0, 1, [0, 0, 1, 1, 1, 1, 0, 0]>, <304, 6, 24, 18, 18, 0, 1, [0, 0, 1, 1, 1, 1, 0, 0]>, <305, 8, 26, 18, 18, 0, 1, [0, 0, 1, 1, 1, 1, 0, 0]>, <306, 9, 27, 18, 18, 0, 1, [0, 0, 1, 1, 1, 1, 0, 0]>, <307, 10, 28, 18, 18, 0, 1, [0, 0, 1, 1, 1, 1, 0, 0]>, <308, 11, 29, 18, 18, 0, 1, [0, 0, 1, 1, 1, 1, 0, 0]>, <309, 12, 30, 18, 18, 0, 1, [0, 0, 1, 1, 1, 1, 0, 0]>, <310, 13, 31, 18, 18, 0, 1, [0, 0, 1, 1, 1, 1, 0, 0]>, <311, 14, 32, 18, 18, 0, 1, [0, 0, 1, 1, 1, 1, 0, 0]>, <312, 15, 33, 18, 18, 0, 1, [0, 0, 1, 1, 1, 1, 0, 0]>, <313, 16, 34, 18, 18, 0, 1, [0, 0, 1, 1, 1, 1, 0, 0]>, <314, 17, 35, 18, 18, 0, 1, [0, 0, 1, 1, 1, 1, 0, 0]>, <315, 0, 18, 18, 19, 0, 0, [0, 0, 0, 0, 1, 1, 1, 1]>, <316, 1, 19, 18, 19, 0, 0, [0, 0, 0, 0, 1, 1, 1, 1]>, <317, 2, 20, 18, 19, 0, 0, [0, 0, 0, 0, 1, 1, 1, 1]>, <318, 3, 21, 18, 19, 0, 0, [0, 0, 0, 0, 1, 1, 1, 1]>, <319, 4, 22, 18, 19, 0, 0, [0, 0, 0, 0, 1, 1, 1, 1]>, <320, 5, 23, 18, 19, 0, 0, [0, 0, 0, 0, 1, 1, 1, 1]>, <321, 6, 24, 18, 19, 0, 0, [0, 0, 0, 0, 1, 1, 1, 1]>, <322, 8, 26, 18, 19, 0, 0, [0, 0, 0, 0, 1, 1, 1, 1]>, <323, 9, 27, 18, 19, 0, 0, [0, 0, 0, 0, 1, 1, 1, 1]>, <324, 10, 28, 18, 19, 0, 0, [0, 0, 0, 0, 1, 1, 1, 1]>, <325, 11, 29, 18, 19, 0, 0, [0, 0, 0, 0, 1, 1, 1, 1]>, <326, 12, 30, 18, 19, 0, 0, [0, 0, 0, 0, 1, 1, 1, 1]>, <327, 13, 31, 18, 19, 0, 0, [0, 0, 0, 0, 1, 1, 1, 1]>, <328, 14, 32, 18, 19, 0, 0, [0, 0, 0, 0, 1, 1, 1, 1]>, <329, 15, 33, 18, 19, 0, 0, [0, 0, 0, 0, 1, 1, 1, 1]>, <330, 16, 34, 18, 19, 0, 0, [0, 0, 0, 0, 1, 1, 1, 1]>, <331, 17, 35, 18, 19, 0, 0, [0, 0, 0, 0, 1, 1, 1, 1]>, <332, 0, 18, 18, 20, 1, 0, [0, 1, 1, 1, 1, 0, 0, 0]>, <333, 1, 19, 18, 20, 1, 0, [0, 1, 1, 1, 1, 0, 0, 0]>, <334, 2, 20, 18, 20, 1, 0, [0, 1, 1, 1, 1, 0, 0, 0]>, <335, 3, 21, 18, 20, 1, 0, [0, 1, 1, 1, 1, 0, 0, 0]>, <336, 4, 22, 18, 20, 1, 0, [0, 1, 1, 1, 1, 0, 0, 0]>, <337, 5, 23, 18, 20, 1, 0, [0, 1, 1, 1, 1, 0, 0, 0]>, <338, 6, 24, 18, 20, 1, 0, [0, 1, 1, 1, 1, 0, 0, 0]>, <339, 8, 26, 18, 20, 1, 0, [0, 1, 1, 1, 1, 0, 0, 0]>, <340, 9, 27, 18, 20, 1, 0, [0, 1, 1, 1, 1, 0, 0, 0]>, <341, 10, 28, 18, 20, 1, 0, [0, 1, 1, 1, 1, 0, 0, 0]>, <342, 11, 29, 18, 20, 1, 0, [0, 1, 1, 1, 1, 0, 0, 0]>, <343, 12, 30, 18, 20, 1, 0, [0, 1, 1, 1, 1, 0, 0, 0]>, <344, 13, 31, 18, 20, 1, 0, [0, 1, 1, 1, 1, 0, 0, 0]>, <345, 14, 32, 18, 20, 1, 0, [0, 1, 1, 1, 1, 0, 0, 0]>, <346, 15, 33, 18, 20, 1, 0, [0, 1, 1, 1, 1, 0, 0, 0]>, <347, 16, 34, 18, 20, 1, 0, [0, 1, 1, 1, 1, 0, 0, 0]>, <348, 17, 35, 18, 20, 1, 0, [0, 1, 1, 1, 1, 0, 0, 0]>, <349, 1, 17, 16, 21, 0, 0, [1, 0, 0, 0, 0, 1, 1, 1]>, <350, 2, 18, 16, 21, 0, 0, [1, 0, 0, 0, 0, 1, 1, 1]>, <351, 3, 19, 16, 21, 0, 0, [1, 0, 0, 0, 0, 1, 1, 1]>, <352, 4, 20, 16, 21, 0, 0, [1, 0, 0, 0, 0, 1, 1, 1]>, <353, 5, 21, 16, 21, 0, 0, [1, 0, 0, 0, 0, 1, 1, 1]>, <354, 6, 22, 16, 21, 0, 0, [1, 0, 0, 0, 0, 1, 1, 1]>, <355, 10, 26, 16, 21, 0, 0, [1, 0, 0, 0, 0, 1, 1, 1]>, <356, 11, 27, 16, 21, 0, 0, [1, 0, 0, 0, 0, 1, 1, 1]>, <357, 12, 28, 16, 21, 0, 0, [1, 0, 0, 0, 0, 1, 1, 1]>, <358, 13, 29, 16, 21, 0, 0, [1, 0, 0, 0, 0, 1, 1, 1]>, <359, 14, 30, 16, 21, 0, 0, [1, 0, 0, 0, 0, 1, 1, 1]>, <360, 15, 31, 16, 21, 0, 0, [1, 0, 0, 0, 0, 1, 1, 1]>, <361, 16, 32, 16, 21, 0, 0, [1, 0, 0, 0, 0, 1, 1, 1]>, <362, 17, 33, 16, 21, 0, 0, [1, 0, 0, 0, 0, 1, 1, 1]>, <363, 18, 34, 16, 21, 0, 0, [1, 0, 0, 0, 0, 1, 1, 1]>, <364, 19, 35, 16, 21, 0, 0, [1, 0, 0, 0, 0, 1, 1, 1]>};
